<?xml version = "1.0" standalone="yes"?>
<!-- This file has been generated by DOcplex version 2.23.222  -->
<CPLEXSolution version="1.0">
 <header
   problemName="CVRP"
   objectiveValue="10470.7"
  />
 <variables>
  <variable name="x_0_3" index="2" value="1.00000"/>
  <variable name="x_0_6" index="5" value="1.00000"/>
  <variable name="x_0_9" index="8" value="1.00000"/>
  <variable name="x_0_13" index="12" value="1.00000"/>
  <variable name="x_0_15" index="14" value="1.00000"/>
  <variable name="x_0_17" index="16" value="1.00000"/>
  <variable name="x_0_19" index="18" value="1.00000"/>
  <variable name="x_0_20" index="19" value="1.00000"/>
  <variable name="x_0_21" index="20" value="1.00000"/>
  <variable name="x_0_22" index="21" value="1.00000"/>
  <variable name="x_0_24" index="23" value="1.00000"/>
  <variable name="x_1_11" index="34" value="1.00000"/>
  <variable name="x_2_0" index="48" value="1.00000"/>
  <variable name="x_3_4" index="75" value="1.00000"/>
  <variable name="x_4_16" index="111" value="1.00000"/>
  <variable name="x_5_0" index="120" value="1.00000"/>
  <variable name="x_6_1" index="145" value="1.00000"/>
  <variable name="x_7_0" index="168" value="1.00000"/>
  <variable name="x_8_0" index="192" value="1.00000"/>
  <variable name="x_9_5" index="221" value="1.00000"/>
  <variable name="x_10_14" index="253" value="1.00000"/>
  <variable name="x_11_10" index="274" value="1.00000"/>
  <variable name="x_12_0" index="288" value="1.00000"/>
  <variable name="x_13_8" index="320" value="1.00000"/>
  <variable name="x_14_0" index="336" value="1.00000"/>
  <variable name="x_15_0" index="360" value="1.00000"/>
  <variable name="x_16_12" index="396" value="1.00000"/>
  <variable name="x_17_2" index="410" value="1.00000"/>
  <variable name="x_18_0" index="432" value="1.00000"/>
  <variable name="x_19_0" index="456" value="1.00000"/>
  <variable name="x_20_18" index="498" value="1.00000"/>
  <variable name="x_21_7" index="511" value="1.00000"/>
  <variable name="x_22_23" index="550" value="1.00000"/>
  <variable name="x_23_0" index="552" value="1.00000"/>
  <variable name="x_24_0" index="576" value="1.00000"/>
  <variable name="u_1" index="600" value="12.00000"/>
  <variable name="u_2" index="601" value="55.00000"/>
  <variable name="u_3" index="602" value="8.00000"/>
  <variable name="u_4" index="603" value="27.00000"/>
  <variable name="u_5" index="604" value="55.00000"/>
  <variable name="u_6" index="605" value="10.00000"/>
  <variable name="u_7" index="606" value="51.00000"/>
  <variable name="u_8" index="607" value="54.00000"/>
  <variable name="u_9" index="608" value="47.00000"/>
  <variable name="u_10" index="609" value="37.00000"/>
  <variable name="u_11" index="610" value="27.00000"/>
  <variable name="u_12" index="611" value="55.00000"/>
  <variable name="u_13" index="612" value="17.00000"/>
  <variable name="u_14" index="613" value="51.00000"/>
  <variable name="u_15" index="614" value="55.00000"/>
  <variable name="u_16" index="615" value="32.00000"/>
  <variable name="u_17" index="616" value="46.00000"/>
  <variable name="u_18" index="617" value="55.00000"/>
  <variable name="u_19" index="618" value="49.00000"/>
  <variable name="u_20" index="619" value="47.00000"/>
  <variable name="u_21" index="620" value="34.00000"/>
  <variable name="u_22" index="621" value="33.00000"/>
  <variable name="u_23" index="622" value="55.00000"/>
  <variable name="u_24" index="623" value="54.00000"/>
 </variables>
</CPLEXSolution>
